TSP1

VND:
valor de k: 3
Custo minimio: 215163
Custo atual: 215163

Caminho: 0, 1, 5, 6, 13, 11, 8, 10, 3, 2, 4, 9, 7, 14, 16, 23, 20, 19, 22, 18, 17, 15, 29, 36, 43, 46, 59, 63, 50, 57, 56, 72, 83, 82, 101, 98, 114, 106, 97, 84, 74, 66, 55, 37, 26, 28, 24, 21, 12, 25, 27, 30, 42, 35, 33, 40, 34, 39, 32, 48, 61, 45, 31, 44, 53, 38, 41, 54, 67, 94, 102, 99, 92, 89, 86, 81, 78, 70, 58, 52, 47, 49, 51, 60, 64, 73, 80, 85, 88, 75, 68, 69, 79, 91, 164, 155, 159, 168, 169, 160, 149, 150, 144, 141, 135, 132, 126, 122, 112, 125, 133, 145, 123, 143, 142, 167, 195, 187, 172, 186, 189, 216, 243, 275, 277, 291, 302, 314, 328, 344, 338, 365, 364, 388, 354, 324, 290, 286, 268, 274, 269, 236, 224, 211, 198, 171, 153, 152, 157, 151, 156, 165, 170, 174, 185, 184, 206, 235, 263, 301, 316, 363, 402, 387, 412, 419, 432, 426, 413, 414, 415, 403, 416, 420, 396, 361, 317, 292, 339, 355, 366, 357, 358, 375, 329, 294, 293, 270, 246, 227, 193, 177, 207, 251, 244, 225, 196, 178, 161, 130, 107, 103, 100, 109, 111, 117, 116, 119, 136, 138, 146, 154, 127, 113, 110, 108, 105, 71, 76, 87, 95, 90, 77, 65, 62, 96, 93, 104, 118, 124, 128, 137, 131, 162, 247, 228, 203, 190, 199, 209, 219, 231, 240, 287, 255, 288, 325, 340, 350, 367, 409, 459, 534, 572, 778, 852, 891, 988, 1027, 1050, 1133, 1139, 1095, 1087, 954, 961, 919, 955, 962, 1134, 1146, 1135, 1164, 1147, 1234, 1257, 1237, 1399, 1491, 1327, 1350, 1121, 1097, 1088, 1096, 1190, 1480, 1441, 1471, 1319, 1290, 1185, 1184, 1198, 1216, 1220, 1272, 1226, 1236, 1318, 1374, 1364, 1302, 1289, 1271, 1242, 1219, 1183, 1197, 1215, 1169, 1232, 1264, 1265, 1233, 1189, 1156, 1120, 1080, 993, 947, 1021, 1066, 946, 910, 904, 806, 752, 840, 674, 605, 615, 596, 646, 527, 472, 458, 444, 463, 481, 487, 558, 614, 563, 496, 486, 447, 423, 393, 349, 300, 327, 348, 353, 323, 313, 284, 285, 250, 239, 233, 214, 223, 234, 215, 183, 181, 182, 192, 191, 194, 242, 226, 202, 205, 238, 267, 312, 283, 266, 282, 322, 347, 337, 343, 321, 281, 280, 254, 213, 218, 232, 258, 245, 230, 201, 210, 212, 222, 253, 262, 265, 311, 333, 334, 385, 374, 392, 352, 341, 335, 320, 342, 386, 428, 457, 431, 411, 440, 480, 479, 495, 485, 513, 562, 595, 660, 739, 740, 825, 777, 839, 805, 704, 751, 766, 826, 730, 857, 960, 975, 903, 933, 992, 1034, 1111, 1155, 1163, 1263, 1363, 1398, 1436, 1490, 1478, 1489, 1477, 1461, 1457, 1429, 1326, 1325, 1344, 1288, 1138, 1033, 1043, 1162, 1160, 1020, 1132, 1110, 1109, 1065, 1079, 1049, 1006, 953, 918, 959, 932, 890, 824, 786, 869, 889, 804, 750, 717, 685, 634, 718, 594, 635, 765, 797, 703, 776, 729, 636, 557, 529, 571, 471, 478, 446, 418, 408, 384, 391, 336, 308, 298, 257, 241, 249, 252, 261, 256, 260, 279, 307, 297, 296, 306, 319, 382, 383, 395, 436, 439, 394, 373, 360, 381, 401, 422, 430, 438, 450, 462, 477, 469, 524, 523, 624, 591, 585, 746, 821, 837, 822, 774, 850, 823, 884, 909, 795, 764, 701, 609, 700, 592, 525, 507, 508, 470, 443, 543, 570, 593, 612, 633, 625, 626, 526, 556, 613, 749, 748, 851, 838, 747, 738, 659, 645, 632, 611, 610, 683, 673, 684, 716, 702, 728, 727, 715, 775, 796, 902, 916, 974, 1042, 1119, 1249, 1182, 1041, 1206, 1241, 1256, 1317, 1382, 1334, 1188, 1181, 1196, 1180, 1145, 1094, 1005, 1058, 1019, 1018, 973, 952, 936, 915, 900, 901, 848, 849, 868, 836, 714, 699, 698, 697, 713, 737, 658, 644, 631, 657, 656, 682, 736, 785, 835, 834, 875, 847, 820, 819, 803, 771, 818, 867, 856, 883, 895, 930, 917, 899, 888, 866, 846, 833, 801, 793, 759, 758, 732, 733, 723, 711, 690, 669, 623, 642, 629, 655, 691, 692, 724, 734, 743, 782, 794, 802, 783, 770, 745, 744, 693, 679, 670, 671, 672, 694, 760, 761, 772, 735, 762, 784, 773, 763, 726, 712, 725, 696, 681, 695, 680, 643, 630, 608, 601, 602, 603, 604, 583, 569, 584, 578, 561, 522, 468, 467, 502, 533, 521, 549, 542, 560, 506, 484, 568, 541, 501, 520, 555, 590, 600, 678, 755, 781, 769, 756, 688, 689, 757, 865, 908, 944, 929, 945, 985, 1004, 1013, 1026, 1040, 1086, 1131, 1107, 1130, 1143, 1142, 1106, 1085, 1105, 1161, 1157, 1168, 1179, 1225, 1254, 1247, 1214, 1235, 1269, 1253, 1252, 1268, 1311, 1316, 1300, 1341, 1381, 1373, 1359, 1324, 1281, 1287, 1312, 1282, 1283, 1255, 1231, 1240, 1248, 1270, 1144, 1158, 1108, 1078, 1014, 986, 972, 1015, 987, 931, 1016, 1017, 1064, 1159, 1301, 1406, 1464, 1454, 1470, 1420, 1390, 1340, 1310, 1286, 1280, 1262, 1230, 1178, 1205, 1187, 1261, 1279, 1299, 1309, 1339, 1372, 1389, 1405, 1419, 1388, 1378, 1370, 1371, 1379, 1380, 1315, 1296, 1267, 1224, 1260, 1295, 1314, 1338, 1349, 1358, 1348, 1337, 1333, 1323, 1336, 1343, 1357, 1362, 1361, 1347, 1356, 1367, 1369, 1387, 1386, 1397, 1416, 1415, 1426, 1433, 1432, 1446, 1450, 1423, 1404, 1385, 1366, 1377, 1342, 1308, 1278, 1259, 1239, 1213, 1176, 1103, 1129, 1177, 1104, 1076, 1012, 983, 950, 924, 816, 720, 667, 687, 628, 652, 710, 653, 581, 577, 588, 589, 721, 855, 792, 907, 906, 914, 971, 1025, 1154, 1077, 984, 966, 942, 951, 925, 943, 1031, 1032, 998, 898, 845, 832, 817, 731, 677, 654, 582, 512, 505, 548, 641, 831, 722, 668, 622, 554, 466, 461, 465, 532, 580, 519, 547, 576, 754, 874, 897, 923, 949, 1011, 1039, 1063, 1102, 1137, 1175, 1153, 1093, 982, 791, 640, 709, 894, 928, 1057, 1056, 1024, 1062, 1092, 1195, 1228, 1306, 1368, 1410, 1440, 1444, 1355, 1332, 1307, 1229, 1246, 1274, 1294, 1322, 1346, 1335, 1414, 1484, 1445, 1460, 1483, 1482, 1495, 1488, 1487, 1459, 1486, 1494, 1453, 1431, 1396, 1345, 1354, 1331, 1273, 1293, 1227, 1245, 1193, 1141, 1060, 1118, 1136, 1174, 1218, 1238, 1251, 1075, 1010, 935, 1038, 990, 939, 927, 979, 970, 980, 1003, 940, 958, 1055, 1061, 981, 997, 1070, 1152, 1194, 1223, 1212, 1128, 1030, 991, 941, 790, 864, 882, 863, 854, 830, 686, 896, 862, 815, 753, 708, 639, 575, 567, 587, 621, 540, 500, 517, 511, 518, 483, 460, 494, 553, 599, 666, 579, 546, 531, 435, 417, 380, 273, 272, 310, 295, 315, 346, 362, 356, 372, 379, 407, 410, 427, 400, 425, 429, 434, 449, 464, 448, 476, 504, 456, 475, 493, 474, 492, 405, 406, 399, 371, 351, 326, 309, 305, 208, 229, 248, 221, 204, 188, 180, 176, 163, 158, 179, 173, 148, 121, 115, 120, 129, 140, 134, 139, 166, 147, 175, 197, 200, 220, 217, 237, 271, 264, 259, 276, 278, 299, 303, 289, 304, 318, 345, 359, 370, 390, 397, 433, 454, 489, 538, 574, 537, 598, 650, 663, 597, 566, 453, 497, 516, 565, 627, 662, 675, 676, 706, 768, 813, 859, 905, 886, 829, 664, 638, 552, 544, 528, 455, 490, 503, 530, 539, 498, 499, 491, 510, 545, 618, 606, 607, 619, 707, 800, 620, 881, 1023, 996, 965, 913, 1009, 1054, 1127, 1222, 1266, 1321, 1384, 1417, 1418, 1409, 1395, 1292, 1330, 1360, 1365, 1413, 1443, 1476, 1428, 1435, 1458, 1468, 1427, 1394, 1277, 1329, 1305, 1285, 1221, 1173, 1151, 1117, 1101, 1074, 995, 1047, 1048, 1037, 969, 957, 893, 814, 665, 586, 651, 742, 873, 861, 880, 860, 887, 922, 938, 1069, 1022, 1046, 1053, 1126, 1125, 1192, 1204, 1210, 1211, 1244, 1304, 1313, 1408, 1353, 1298, 1258, 1243, 1209, 1172, 1217, 1203, 1140, 1124, 1116, 1150, 1167, 1099, 1100, 926, 921, 912, 879, 885, 1002, 1029, 978, 1001, 1000, 1083, 1115, 1072, 1091, 1084, 1073, 1166, 1171, 1149, 1202, 1201, 1200, 1165, 1199, 1493, 1499, 1467, 1208, 934, 810, 637, 564, 573, 648, 788, 872, 811, 649, 705, 767, 779, 789, 812, 853, 892, 844, 780, 661, 515, 482, 442, 377, 389, 378, 404, 332, 331, 330, 368, 369, 376, 398, 421, 424, 445, 437, 441, 452, 451, 473, 509, 514, 488, 551, 536, 535, 647, 550, 617, 559, 616, 719, 741, 787, 841, 827, 870, 967, 976, 968, 989, 964, 977, 948, 877, 878, 842, 807, 798, 799, 808, 828, 858, 871, 843, 809, 911, 937, 1008, 1036, 1028, 1082, 1114, 1191, 1186, 1207, 1250, 1276, 1291, 1170, 1148, 1123, 1045, 999, 1044, 876, 920, 956, 963, 1007, 1035, 994, 1059, 1081, 1089, 1098, 1122, 1067, 1051, 1052, 1068, 1071, 1090, 1112, 1113, 1303, 1393, 1422, 1421, 1407, 1392, 1376, 1434, 1439, 1449, 1466, 1403, 1391, 1430, 1452, 1451, 1456, 1472, 1492, 1475, 1498, 1497, 1401, 1352, 1383, 1438, 1448, 1455, 1465, 1479, 1481, 1474, 1463, 1447, 1442, 1425, 1412, 1400, 1375, 1351, 1284, 1275, 1328, 1320, 1297, 1402, 1411, 1424, 1437, 1462, 1469, 1473, 1485, 1496, 0


VND FINAL:
Custo minimio total: 215163
Caminho: 0, 1, 5, 6, 13, 11, 8, 10, 3, 2, 4, 9, 7, 14, 16, 23, 20, 19, 22, 18, 17, 15, 29, 36, 43, 46, 59, 63, 50, 57, 56, 72, 83, 82, 101, 98, 114, 106, 97, 84, 74, 66, 55, 37, 26, 28, 24, 21, 12, 25, 27, 30, 42, 35, 33, 40, 34, 39, 32, 48, 61, 45, 31, 44, 53, 38, 41, 54, 67, 94, 102, 99, 92, 89, 86, 81, 78, 70, 58, 52, 47, 49, 51, 60, 64, 73, 80, 85, 88, 75, 68, 69, 79, 91, 164, 155, 159, 168, 169, 160, 149, 150, 144, 141, 135, 132, 126, 122, 112, 125, 133, 145, 123, 143, 142, 167, 195, 187, 172, 186, 189, 216, 243, 275, 277, 291, 302, 314, 328, 344, 338, 365, 364, 388, 354, 324, 290, 286, 268, 274, 269, 236, 224, 211, 198, 171, 153, 152, 157, 151, 156, 165, 170, 174, 185, 184, 206, 235, 263, 301, 316, 363, 402, 387, 412, 419, 432, 426, 413, 414, 415, 403, 416, 420, 396, 361, 317, 292, 339, 355, 366, 357, 358, 375, 329, 294, 293, 270, 246, 227, 193, 177, 207, 251, 244, 225, 196, 178, 161, 130, 107, 103, 100, 109, 111, 117, 116, 119, 136, 138, 146, 154, 127, 113, 110, 108, 105, 71, 76, 87, 95, 90, 77, 65, 62, 96, 93, 104, 118, 124, 128, 137, 131, 162, 247, 228, 203, 190, 199, 209, 219, 231, 240, 287, 255, 288, 325, 340, 350, 367, 409, 459, 534, 572, 778, 852, 891, 988, 1027, 1050, 1133, 1139, 1095, 1087, 954, 961, 919, 955, 962, 1134, 1146, 1135, 1164, 1147, 1234, 1257, 1237, 1399, 1491, 1327, 1350, 1121, 1097, 1088, 1096, 1190, 1480, 1441, 1471, 1319, 1290, 1185, 1184, 1198, 1216, 1220, 1272, 1226, 1236, 1318, 1374, 1364, 1302, 1289, 1271, 1242, 1219, 1183, 1197, 1215, 1169, 1232, 1264, 1265, 1233, 1189, 1156, 1120, 1080, 993, 947, 1021, 1066, 946, 910, 904, 806, 752, 840, 674, 605, 615, 596, 646, 527, 472, 458, 444, 463, 481, 487, 558, 614, 563, 496, 486, 447, 423, 393, 349, 300, 327, 348, 353, 323, 313, 284, 285, 250, 239, 233, 214, 223, 234, 215, 183, 181, 182, 192, 191, 194, 242, 226, 202, 205, 238, 267, 312, 283, 266, 282, 322, 347, 337, 343, 321, 281, 280, 254, 213, 218, 232, 258, 245, 230, 201, 210, 212, 222, 253, 262, 265, 311, 333, 334, 385, 374, 392, 352, 341, 335, 320, 342, 386, 428, 457, 431, 411, 440, 480, 479, 495, 485, 513, 562, 595, 660, 739, 740, 825, 777, 839, 805, 704, 751, 766, 826, 730, 857, 960, 975, 903, 933, 992, 1034, 1111, 1155, 1163, 1263, 1363, 1398, 1436, 1490, 1478, 1489, 1477, 1461, 1457, 1429, 1326, 1325, 1344, 1288, 1138, 1033, 1043, 1162, 1160, 1020, 1132, 1110, 1109, 1065, 1079, 1049, 1006, 953, 918, 959, 932, 890, 824, 786, 869, 889, 804, 750, 717, 685, 634, 718, 594, 635, 765, 797, 703, 776, 729, 636, 557, 529, 571, 471, 478, 446, 418, 408, 384, 391, 336, 308, 298, 257, 241, 249, 252, 261, 256, 260, 279, 307, 297, 296, 306, 319, 382, 383, 395, 436, 439, 394, 373, 360, 381, 401, 422, 430, 438, 450, 462, 477, 469, 524, 523, 624, 591, 585, 746, 821, 837, 822, 774, 850, 823, 884, 909, 795, 764, 701, 609, 700, 592, 525, 507, 508, 470, 443, 543, 570, 593, 612, 633, 625, 626, 526, 556, 613, 749, 748, 851, 838, 747, 738, 659, 645, 632, 611, 610, 683, 673, 684, 716, 702, 728, 727, 715, 775, 796, 902, 916, 974, 1042, 1119, 1249, 1182, 1041, 1206, 1241, 1256, 1317, 1382, 1334, 1188, 1181, 1196, 1180, 1145, 1094, 1005, 1058, 1019, 1018, 973, 952, 936, 915, 900, 901, 848, 849, 868, 836, 714, 699, 698, 697, 713, 737, 658, 644, 631, 657, 656, 682, 736, 785, 835, 834, 875, 847, 820, 819, 803, 771, 818, 867, 856, 883, 895, 930, 917, 899, 888, 866, 846, 833, 801, 793, 759, 758, 732, 733, 723, 711, 690, 669, 623, 642, 629, 655, 691, 692, 724, 734, 743, 782, 794, 802, 783, 770, 745, 744, 693, 679, 670, 671, 672, 694, 760, 761, 772, 735, 762, 784, 773, 763, 726, 712, 725, 696, 681, 695, 680, 643, 630, 608, 601, 602, 603, 604, 583, 569, 584, 578, 561, 522, 468, 467, 502, 533, 521, 549, 542, 560, 506, 484, 568, 541, 501, 520, 555, 590, 600, 678, 755, 781, 769, 756, 688, 689, 757, 865, 908, 944, 929, 945, 985, 1004, 1013, 1026, 1040, 1086, 1131, 1107, 1130, 1143, 1142, 1106, 1085, 1105, 1161, 1157, 1168, 1179, 1225, 1254, 1247, 1214, 1235, 1269, 1253, 1252, 1268, 1311, 1316, 1300, 1341, 1381, 1373, 1359, 1324, 1281, 1287, 1312, 1282, 1283, 1255, 1231, 1240, 1248, 1270, 1144, 1158, 1108, 1078, 1014, 986, 972, 1015, 987, 931, 1016, 1017, 1064, 1159, 1301, 1406, 1464, 1454, 1470, 1420, 1390, 1340, 1310, 1286, 1280, 1262, 1230, 1178, 1205, 1187, 1261, 1279, 1299, 1309, 1339, 1372, 1389, 1405, 1419, 1388, 1378, 1370, 1371, 1379, 1380, 1315, 1296, 1267, 1224, 1260, 1295, 1314, 1338, 1349, 1358, 1348, 1337, 1333, 1323, 1336, 1343, 1357, 1362, 1361, 1347, 1356, 1367, 1369, 1387, 1386, 1397, 1416, 1415, 1426, 1433, 1432, 1446, 1450, 1423, 1404, 1385, 1366, 1377, 1342, 1308, 1278, 1259, 1239, 1213, 1176, 1103, 1129, 1177, 1104, 1076, 1012, 983, 950, 924, 816, 720, 667, 687, 628, 652, 710, 653, 581, 577, 588, 589, 721, 855, 792, 907, 906, 914, 971, 1025, 1154, 1077, 984, 966, 942, 951, 925, 943, 1031, 1032, 998, 898, 845, 832, 817, 731, 677, 654, 582, 512, 505, 548, 641, 831, 722, 668, 622, 554, 466, 461, 465, 532, 580, 519, 547, 576, 754, 874, 897, 923, 949, 1011, 1039, 1063, 1102, 1137, 1175, 1153, 1093, 982, 791, 640, 709, 894, 928, 1057, 1056, 1024, 1062, 1092, 1195, 1228, 1306, 1368, 1410, 1440, 1444, 1355, 1332, 1307, 1229, 1246, 1274, 1294, 1322, 1346, 1335, 1414, 1484, 1445, 1460, 1483, 1482, 1495, 1488, 1487, 1459, 1486, 1494, 1453, 1431, 1396, 1345, 1354, 1331, 1273, 1293, 1227, 1245, 1193, 1141, 1060, 1118, 1136, 1174, 1218, 1238, 1251, 1075, 1010, 935, 1038, 990, 939, 927, 979, 970, 980, 1003, 940, 958, 1055, 1061, 981, 997, 1070, 1152, 1194, 1223, 1212, 1128, 1030, 991, 941, 790, 864, 882, 863, 854, 830, 686, 896, 862, 815, 753, 708, 639, 575, 567, 587, 621, 540, 500, 517, 511, 518, 483, 460, 494, 553, 599, 666, 579, 546, 531, 435, 417, 380, 273, 272, 310, 295, 315, 346, 362, 356, 372, 379, 407, 410, 427, 400, 425, 429, 434, 449, 464, 448, 476, 504, 456, 475, 493, 474, 492, 405, 406, 399, 371, 351, 326, 309, 305, 208, 229, 248, 221, 204, 188, 180, 176, 163, 158, 179, 173, 148, 121, 115, 120, 129, 140, 134, 139, 166, 147, 175, 197, 200, 220, 217, 237, 271, 264, 259, 276, 278, 299, 303, 289, 304, 318, 345, 359, 370, 390, 397, 433, 454, 489, 538, 574, 537, 598, 650, 663, 597, 566, 453, 497, 516, 565, 627, 662, 675, 676, 706, 768, 813, 859, 905, 886, 829, 664, 638, 552, 544, 528, 455, 490, 503, 530, 539, 498, 499, 491, 510, 545, 618, 606, 607, 619, 707, 800, 620, 881, 1023, 996, 965, 913, 1009, 1054, 1127, 1222, 1266, 1321, 1384, 1417, 1418, 1409, 1395, 1292, 1330, 1360, 1365, 1413, 1443, 1476, 1428, 1435, 1458, 1468, 1427, 1394, 1277, 1329, 1305, 1285, 1221, 1173, 1151, 1117, 1101, 1074, 995, 1047, 1048, 1037, 969, 957, 893, 814, 665, 586, 651, 742, 873, 861, 880, 860, 887, 922, 938, 1069, 1022, 1046, 1053, 1126, 1125, 1192, 1204, 1210, 1211, 1244, 1304, 1313, 1408, 1353, 1298, 1258, 1243, 1209, 1172, 1217, 1203, 1140, 1124, 1116, 1150, 1167, 1099, 1100, 926, 921, 912, 879, 885, 1002, 1029, 978, 1001, 1000, 1083, 1115, 1072, 1091, 1084, 1073, 1166, 1171, 1149, 1202, 1201, 1200, 1165, 1199, 1493, 1499, 1467, 1208, 934, 810, 637, 564, 573, 648, 788, 872, 811, 649, 705, 767, 779, 789, 812, 853, 892, 844, 780, 661, 515, 482, 442, 377, 389, 378, 404, 332, 331, 330, 368, 369, 376, 398, 421, 424, 445, 437, 441, 452, 451, 473, 509, 514, 488, 551, 536, 535, 647, 550, 617, 559, 616, 719, 741, 787, 841, 827, 870, 967, 976, 968, 989, 964, 977, 948, 877, 878, 842, 807, 798, 799, 808, 828, 858, 871, 843, 809, 911, 937, 1008, 1036, 1028, 1082, 1114, 1191, 1186, 1207, 1250, 1276, 1291, 1170, 1148, 1123, 1045, 999, 1044, 876, 920, 956, 963, 1007, 1035, 994, 1059, 1081, 1089, 1098, 1122, 1067, 1051, 1052, 1068, 1071, 1090, 1112, 1113, 1303, 1393, 1422, 1421, 1407, 1392, 1376, 1434, 1439, 1449, 1466, 1403, 1391, 1430, 1452, 1451, 1456, 1472, 1492, 1475, 1498, 1497, 1401, 1352, 1383, 1438, 1448, 1455, 1465, 1479, 1481, 1474, 1463, 1447, 1442, 1425, 1412, 1400, 1375, 1351, 1284, 1275, 1328, 1320, 1297, 1402, 1411, 1424, 1437, 1462, 1469, 1473, 1485, 1496, 0